# double-wedge rectangular-top boundary file
# generated by generate_mesh.py
Block 1
Boundary conditions
4
     1      1      1    641      5
   334    334      1    641     -1
     1      1      1    641      2
     1    334      1      1      3
     1    334    641    641      3
Block 2
Boundary conditions
4
     1      1      1    641     -1
   334    334      1    641      1
  1468   1468      1    641     -1
     1      1      1    641      3
     1   1468      1      1      2
     1   1468    641    641      3
Block 3
Boundary conditions
4
     1      1      1    641     -1
  1468   1468      1    641      2
   488    488      1    641     -1
     1      1      1    641      4
     1    488      1      1      2
     1    488    641    641      3
Block 4
Boundary conditions
4
     1      1      1    641     -1
   488    488      1    641      3
   634    634      1    641      6
     1    634      1      1      2
     1    634    641    641      3
